20 3
8 9 5
0 0 0 0 10 2 3 4 5 7 9 11 13 15 19
10 2 2 2 2 18 6
15 3 2 2 1 20
8 2 3 2 1 20
14 2 2 2 2 10 8
17 2 2 2 2 12 16
13 4 2 2 1 10
7 3 2 2 1 20
15 2 3 2 1 20
16 2 2 2 1 20
9 3 2 2 1 14
10 2 3 2 1 17
15 3 2 2 1 20
8 2 2 2 1 20
19 2 3 2 1 18
9 2 3 2 1 20
7 3 2 2 1 20
12 3 2 2 1 20
13 4 2 2 1 20
0 0 0 0 0
